(set-logic QF_SLIA)
(declare-const result String)
(declare-const attack String)
(declare-const prefix RegLan)
(declare-const infix RegLan)
(declare-const postfix RegLan)
(declare-const postfixs String)

(assert (str.in_re attack (re.++ prefix ((_ re.loop 10000 10000) infix) postfix)))
(assert (= prefix 
     (str.to_re "\x3e")
))
(assert (= infix 
        (re.inter (re.* (re.union (re.range "\t" "\t") (re.range "\n" "\n") (re.range "\r" "\r") (str.to_re " ")) )  (re.++ (re.* (re.union (re.range "\t" "\t") (re.range "\n" "\n") (re.range "\r" "\r") (str.to_re " ")) ) (re.++  (re.union  (str.to_re "\x5c\x6e")  (str.to_re "\x5c\x72")) (re.* (re.union (re.range "\t" "\t") (re.range "\n" "\n") (re.range "\r" "\r") (str.to_re " ")) ))) (re.* (re.union (re.range "\t" "\t") (re.range "\n" "\n") (re.range "\r" "\r") (str.to_re " ")) ) )
))
(assert (= postfix 
         (str.to_re "\x40")
))
(assert (str.in_re postfixs postfix))
(assert (>= (str.len postfixs) 1))
(assert (= result (str.++ attack postfixs)))
(check-sat)
(get-model)